N = 5;
H = 6;
T = 2;

avail = array3d(1..N, 1..H, 1..T, [6, 2, 1, 7, 10, 6, 7, 3, 10, 2, 7, 9, 6, 9, 0, 9, 10, 1, 3, 5, 5, 5, 6, 10, 0, 10, 10, 4, 1, 5, 8, 6, 2, 1, 0, 5, 4, 8, 4, 6, 7, 5, 0, 10, 6, 9, 2, 7, 8, 3, 2, 3, 10, 8, 5, 7, 3, 7, 2, 0]);

r = array2d(1..H, 1..T, [2, 1, 1, 1, 0, 2, 2, 0, 1, 1, 2, 2]);
